100
32
29
3
22
25
2
28
13
15
29
30
18
23
8
16
15
21
27
30
6
14
19
30
13
13
11
14
4
9
2
17
11
25
12
2
23
3
14
24
7
15
28
4
20
17
4
32
3
23
2
2
21
20
18
27
22
14
24
30
28
20
29
21
29
9
19
8
17
27
12
28
5
29
9
9
23
27
25
17
21
13
26
14
21
12
23
1
22
3
3
14
25
26
5
25
21
2
7
20
4
1